% File represents an instance of a Composite Structure problem to be solved by a CP framework
% Created on 2025-03-26 10:41:30.706
T = 58;
n = 25;
m = 40;
edges = [(1, 2),
(7, 6),
(11, 12),
(16, 17),
(22, 21),
(2, 3),
(7, 8),
(12, 13),
(17, 18),
(22, 23),
(4, 3),
(9, 8),
(14, 13),
(19, 18),
(24, 23),
(5, 4),
(10, 9),
(15, 14),
(20, 19),
(25, 24),
(1, 6),
(11, 6),
(16, 11),
(16, 21),
(7, 2),
(7, 12),
(17, 12),
(22, 17),
(8, 3),
(13, 8),
(18, 13),
(23, 18),
(9, 4),
(14, 9),
(19, 14),
(24, 19),
(10, 5),
(15, 10),
(20, 15),
(25, 20)];
counts = [|8, 10, 8, 14,
|8, 8, 8, 12,
|8, 2, 8, 12,
|8, 2, 8, 14,
|8, 6, 8, 16,
|8, 8, 8, 14,
|8, 8, 8, 16,
|8, 4, 8, 14,
|8, 4, 8, 18,
|8, 6, 8, 20,
|8, 8, 8, 20,
|8, 8, 8, 14,
|8, 6, 8, 14,
|8, 8, 8, 18,
|8, 10, 8, 22,
|8, 10, 8, 22,
|8, 10, 8, 18,
|8, 10, 8, 14,
|8, 10, 8, 20,
|8, 14, 8, 22,
|6, 10, 6, 20,
|8, 12, 8, 20,
|8, 10, 8, 20,
|8, 16, 8, 20,
|8, 20, 8, 22|];
